# Objective value = 95603
x66 0
x67 0
x68 1
x69 1
x70 0
x71 0
x72 0
x73 1
x74 1
x75 0
x76 0
x77 1
x78 1
x79 0
x80 1
x81 1
x82 0
x83 0
x84 1
x85 0
x86 0
x87 0
x88 1
x89 1
x90 0
x91 1
x92 1
x93 0
x94 0
x95 1
x96 1
x97 0
x98 1
x99 1
x100 0
x101 1
x102 1
x103 0
x104 0
x105 1
x106 0
x107 0
x108 1
x109 0
x110 0
x111 0
x112 1
x113 1
x114 0
x115 1
x116 1
x117 0
x118 1
x119 1
x120 0
x121 0
x122 1
x123 1
x124 0
x125 1
x126 1
x127 0
x128 1
x129 1
x130 0
x131 1
x132 0
x133 1
x134 1
x135 0
x136 1
x137 1
x138 0
x139 1
x140 1
x141 0
x142 1
x143 1
x144 0
x145 1
x146 1
x147 0
x148 1
x149 1
x150 0
x151 1
x152 1
x153 0
x154 1
x155 1
x156 1
x157 0
x158 1
x159 1
x160 0
x161 1
x162 1
x163 0
x164 1
x165 1
x166 0
x167 1
x168 1
x169 1
x170 1
x171 0
x172 1
x173 1
x174 0
x175 1
x176 1
x177 0
x178 1
x179 1
x180 0
x181 1
x182 1
x183 1
x184 1
x185 1
x186 1
x187 0
x188 0
x189 1
x190 0
x191 0
x192 1
x193 0
x194 0
x195 1
x196 0
x197 0
x198 0
x199 0
x200 0
x201 0
x202 0
x203 1
x204 1
x205 0
x206 1
x207 0
x208 1
x209 0
x210 1
x211 1
x212 0
x213 1
x214 1
x215 1
x216 1
x217 0
x218 1
x219 1
x220 0
x221 1
x222 1
x223 1
x224 1
x225 1
x226 1
x227 0
x228 0
x229 1
x230 0
x231 0
x232 1
x233 0
x234 0
x235 0
x236 1
x237 0
x238 1
x239 0
x240 0
x241 1
x242 0
x243 0
x244 0
x245 0
x246 1
x247 0
x248 1
x249 0
x250 1
x251 1
x252 1
x253 1
x254 1
x255 1
x256 1
x257 0
x258 0
x259 0
x260 1
x261 0
x262 1
x263 1
x264 1
x265 1
x266 1
x267 1
x268 1
x269 0
x270 0
x271 1
x272 0
x273 1
x274 0
x275 1
x276 1
x277 1
x278 0
x279 1
x280 1
x281 1
x282 0
x283 0
x284 1
x285 1
x286 0
x287 1
x288 1
x289 0
x290 1
x291 1
x292 1
x293 1
x294 1
x295 1
x296 0
x297 0
x298 1
x299 1
x300 1
x301 1
x302 0
x303 1
x304 1
x305 0
x306 0
x307 0
x308 0
x309 0
x310 0
x311 1
x312 1
x313 0
x314 0
x315 0
x316 0
x317 0
x318 0
x319 1
x320 0
x321 1
x322 1
x323 1
x324 1
x325 1
x326 1
x327 0
x328 0
x329 1
x330 1
x331 1
x332 1
x333 0
x334 0
x335 1
x336 1
x337 0
x338 1
x339 1
x340 1
x341 1
x342 1
x343 1
x344 0
x345 0
x346 1
x347 1
x348 1
x349 1
x350 0
x351 1
x352 0
x353 1
x354 1
x355 1
x356 1
x357 1
x358 0
x359 1
x360 1
x361 1
x362 0
x363 0
x364 1
x365 1
x366 1
x367 1
x368 0
x369 1
x370 1
x371 0
x372 1
x373 0
x374 1
x375 1
x376 1
x377 0
x378 1
x379 1
x380 1
x381 0
x382 0
x383 1
x384 1
x385 1
x386 1
x387 0
x388 1
x389 1
x390 1
x391 1
x392 1
x393 0
x394 0
x395 0
x396 0
x397 1
x398 0
x399 0
x400 0
x401 1
x402 1
x403 0
x404 0
x405 0
x406 0
x407 1
x408 0
x409 0
x410 0
x411 0
x412 0
x413 1
x414 1
x415 1
x416 1
x417 1
x418 0
x419 1
x420 1
x421 1
x422 0
x423 0
x424 1
x425 1
x426 1
x427 1
x428 0
x429 1
x430 1
x431 1
x432 1
x433 0
x434 1
x435 0
x436 0
x437 1
x438 0
x439 0
x440 0
x441 0
x442 0
x443 1
x444 1
x445 0
x446 1
x447 1
x448 0
x449 1
x450 0
x451 1
x452 1
x453 1
x454 0
x455 1
x456 0
x457 0
x458 1
x459 1
x460 0
x461 1
x462 1
x463 1
x464 1
x465 1
x466 0
x467 1
x468 0
x469 1
x470 0
x471 1
x472 1
x473 0
x474 1
x475 1
x476 1
x477 1
x478 1
x479 0
x480 1
x481 0
x482 1
x483 1
x484 0
x485 1
x486 1
x487 0
x488 1
x489 1
x490 1
x491 0
x492 1
x493 1
x494 1
x495 0
x496 1
x497 1
x498 1
x499 0
x500 1
x501 1
x502 0
x503 1
x504 1
x505 1
x506 0
x507 1
x508 1
x509 1
x510 0
x511 1
x512 1
x513 1
x514 1
x515 1
x516 1
x517 0
x518 1
x519 0
x520 0
x521 0
x522 1
x523 0
x524 0
x525 0
x526 1
x527 0
x528 0
x529 0
x530 0
x531 0
x532 0
x533 1
x534 1
x535 0
x536 1
x537 1
x538 0
x539 0
x540 1
x541 1
x542 1
x543 0
x544 1
x545 1
x546 1
x547 1
x548 1
x549 0
x550 0
x551 0
x552 1
x553 1
x554 1
x555 1
x556 1
x557 0
x558 1
x559 1
x560 1
x561 0
x562 1
x563 1
x564 1
x565 1
x566 1
x567 0
x568 1
x569 0
x570 0
x571 1
x572 1
x573 1
x574 1
x575 1
x576 0
x577 1
x578 1
x579 1
x580 0
x581 1
x582 1
x583 1
x584 1
x585 1
x586 0
x587 1
x588 1
x589 0
x590 0
x591 1
x592 1
x593 1
x594 1
x595 1
x596 0
x597 1
x598 1
x599 0
x600 0
x601 1
x602 1
x603 1
x604 1
x605 1
x606 0
x607 1
x608 1
x609 1
x610 1
x611 1
x612 0
x613 0
x614 0
x615 1
x616 0
x617 1
x618 0
x619 0
x620 0
x621 1
x622 0
x623 0
x624 0
x625 0
x626 0
x627 1
x628 0
x629 0
x630 0
x631 0
x632 0
x633 0
x634 1
x635 1
x636 1
x637 0
x638 1
x639 1
x640 1
x641 0
x642 1
x643 0
x644 1
x645 1
x646 1
x647 1
x648 1
x649 0
x650 1
x651 1
x652 1
x653 1
x654 0
x655 1
x656 0
x657 0
x658 0
x659 0
x660 1
x661 1
x662 0
x663 0
x664 1
x665 0
x666 1
x667 0
x668 0
x669 0
x670 0
x671 0
x672 1
x673 0
x674 0
x675 0
x676 0
x677 1
x678 0
x679 0
x680 1
x681 1
x682 1
x683 1
x684 0
x685 1
x686 1
x687 1
x688 0
x689 1
x690 0
x691 1
x692 1
x693 1
x694 1
x695 1
x696 0
x697 1
x698 1
x699 1
x700 1
x701 0
x702 1
x703 0
x704 0
x705 1
x706 1
x707 1
x708 1
x709 0
x710 1
x711 1
x712 1
x713 0
x714 1
x715 0
x716 1
x717 1
x718 1
x719 1
x720 1
x721 0
x722 1
x723 1
x724 1
x725 1
x726 0
x727 1
x728 0
x729 1
x730 0
x731 1
x732 1
x733 0
x734 1
x735 1
x736 1
x737 1
x738 1
x739 0
x740 0
x741 0
x742 1
x743 1
x744 1
x745 1
x746 1
x747 1
x748 0
x749 0
x750 1
x751 0
x752 1
x753 0
x754 0
x755 0
x756 1
x757 0
x758 1
x759 0
x760 0
x761 0
x762 0
x763 1
x764 0
x765 0
x766 1
x767 1
x768 0
x769 1
x770 1
x771 1
x772 1
x773 1
x774 0
x775 1
x776 0
x777 1
x778 1
x779 1
x780 1
x781 1
x782 1
x783 0
x784 0
x785 1
x786 1
x787 0
x788 1
x789 1
x790 1
x791 1
x792 1
x793 0
x794 1
x795 0
x796 1
x797 1
x798 1
x799 0
x800 1
x801 1
x802 0
x803 1
x804 0
x805 1
x806 1
x807 0
x808 1
x809 1
x810 1
x811 0
x812 1
x813 1
x814 1
x815 1
x816 1
x817 0
x818 1
x819 1
x820 1
x821 1
x822 0
x823 1
x824 1
x825 0
x826 1
x827 1
x828 0
x829 1
x830 1
x831 1
x832 0
x833 1
x834 1
x835 1
x836 1
x837 1
x838 0
x839 1
x840 1
x841 0
x842 1
x843 0
x844 1
x845 1
x846 1
x847 0
x848 0
x849 1
x850 0
x851 1
x852 1
x853 1
x854 0
x855 1
x856 1
x857 1
x858 1
x859 1
x860 0
x861 1
x862 1
x863 1
x864 1
x865 0
x866 1
x867 1
x868 1
x869 1
x870 1
x871 0
x872 0
x873 1
x874 0
x875 0
x876 1
x877 1
x878 0
x879 0
x880 0
x881 0
x882 0
x883 1
x884 0
x885 1
x886 0
x887 0
x888 1
x889 0
x890 0
x891 0
x892 0
x893 0
x894 0
x895 0
x896 1
x897 1
x898 1
x899 1
x900 1
x901 0
x902 1
x903 1
x904 1
x905 0
x906 1
x907 1
x908 1
x909 1
x910 0
x911 1
x912 0
x913 1
x914 1
x915 1
x916 1
x917 1
x918 0
x919 0
x920 0
x921 1
x922 1
x923 1
x924 1
x925 1
x926 0
x927 1
x928 1
x929 1
x930 1
x931 1
x932 1
x933 1
x934 1
x935 0
x936 1
x937 0
x938 1
x939 1
x940 1
x941 1
x942 1
x943 0
x944 1
x945 1
x946 1
x947 0
x948 0
x949 0
x950 0
x951 0
x952 1
x953 0
x954 0
x955 1
x956 0
x957 1
x958 0
x959 0
x960 0
x961 1
x962 0
x963 1
x964 0
x965 0
x966 0
x967 0
x968 0
x969 1
x970 0
x971 0
x972 0
x973 0
x974 1
x975 1
x976 1
x977 0
x978 1
x979 0
x980 1
x981 1
x982 1
x983 1
x984 1
x985 1
x986 1
x987 1
x988 0
x989 1
x990 0
x991 1
x992 1
x993 1
x994 1
x995 1
x996 0
x997 1
x998 1
x999 0
x1000 1
x1001 1
x1002 0
x1003 0
x1004 0
x1005 1
x1006 0
x1007 0
x1008 0
x1009 1
x1010 0
x1011 1
x1012 0
x1013 0
x1014 1
x1015 0
x1016 0
x1017 0
x1018 1
x1019 0
x1020 0
x1021 0
x1022 0
x1023 0
x1024 1
x1025 0
x1026 0
x1027 1
x1028 0
x1029 0
x1030 1
x1031 1
x1032 1
x1033 1
x1034 0
x1035 0
x1036 1
x1037 1
x1038 0
x1039 1
x1040 1
x1041 1
x1042 1
x1043 0
x1044 1
x1045 1
x1046 1
x1047 0
x1048 1
x1049 1
x1050 1
x1051 1
x1052 1
x1053 0
x1054 1
x1055 1
x1056 0
x1057 1
x1058 0
x1059 0
x1060 1
x1061 1
x1062 1
x1063 1
x1064 0
x1065 1
x1066 1
x1067 1
x1068 0
x1069 1
x1070 1
x1071 0
x1072 1
x1073 0
x1074 1
x1075 1
x1076 1
x1077 0
x1078 1
x1079 1
x1080 1
x1081 1
x1082 1
x1083 0
x1084 1
x1085 1
x1086 0
x1087 1
x1088 0
x1089 1
x1090 0
x1091 1
x1092 1
x1093 1
x1094 1
x1095 0
x1096 1
x1097 1
x1098 1
x1099 0
x1100 1
x1101 1
x1102 1
x1103 1
x1104 0
x1105 1
x1106 1
x1107 1
x1108 0
x1109 1
x1110 1
x1111 1
x1112 1
x1113 1
x1114 0
x1115 1
x1116 1
x1117 0
x1118 1
x1119 0
x1120 1
x1121 1
x1 1
x2 0
x3 0
x4 1
x5 0
x6 0
x7 1
x8 0
x9 0
x10 1
x11 0
x12 0
x13 0
x14 0
x15 0
x16 0
x17 1
x18 0
x19 0
x20 0
x21 1
x22 1
x23 0
x24 0
x25 0
x26 0
x27 1
x28 0
x29 0
x30 0
x31 0
x32 1
x33 0
x34 1
x35 0
x36 0
x37 0
x38 0
x39 0
x40 1
x41 0
x42 0
x43 0
x44 0
x45 1
x46 0
x47 1
x48 0
x49 0
x50 0
x51 1
x52 0
x53 0
x54 0
x55 0
x56 0
x57 1
x58 0
x59 0
x60 1
x61 0
x62 1
x63 0
x64 0
x65 0
